Generated by pypolymlp
1.0
   13.106904043574838 -37.071922918292600 -26.754355845316603
   0.000000000000000 9.267980729573148 -26.754355845316603
   0.000000000000000 0.000000000000000 5.350871169063321
 Cu  Au
 36  12
Direct
   0.083333333333333 0.416666666666665 0.749999999999989
   0.250000000000000 0.250000000000000 0.249999999999998
   0.416666666666667 0.083333333333335 0.750000000000007
   0.583333333333333 0.916666666666665 0.249999999999986
   0.750000000000000 0.749999999999999 0.749999999999993
   0.916666666666667 0.583333333333334 0.250000000000004
   0.083333333333333 0.916666666666665 0.749999999999988
   0.250000000000000 0.750000000000000 0.249999999999998
   0.416666666666667 0.583333333333335 0.750000000000007
   0.583333333333333 0.416666666666665 0.249999999999986
   0.750000000000000 0.249999999999999 0.749999999999993
   0.916666666666667 0.083333333333334 0.250000000000004
   0.083333333333333 0.416666666666665 0.249999999999989
   0.250000000000000 0.250000000000000 0.749999999999998
   0.416666666666667 0.083333333333335 0.250000000000007
   0.583333333333333 0.916666666666665 0.749999999999986
   0.750000000000000 0.749999999999999 0.249999999999993
   0.916666666666667 0.583333333333334 0.750000000000004
   0.083333333333333 0.916666666666665 0.249999999999988
   0.250000000000000 0.750000000000000 0.749999999999998
   0.416666666666667 0.583333333333335 0.250000000000007
   0.583333333333333 0.416666666666665 0.749999999999986
   0.750000000000000 0.249999999999999 0.249999999999993
   0.916666666666667 0.083333333333334 0.750000000000004
   0.083333333333333 0.166666666666665 0.249999999999988
   0.250000000000000 1.000000000000000 0.749999999999998
   0.416666666666667 0.833333333333335 0.250000000000007
   0.583333333333333 0.666666666666665 0.749999999999986
   0.750000000000000 0.499999999999999 0.249999999999993
   0.916666666666667 0.333333333333334 0.750000000000004
   0.083333333333333 0.666666666666665 0.249999999999988
   0.250000000000000 0.500000000000000 0.749999999999998
   0.416666666666667 0.333333333333335 0.250000000000007
   0.583333333333333 0.166666666666665 0.749999999999986
   0.750000000000000 0.999999999999999 0.249999999999993
   0.916666666666667 0.833333333333334 0.750000000000004
   0.250000000000000 1.000000000000000 0.249999999999998
   0.416666666666667 0.833333333333335 0.750000000000007
   0.583333333333333 0.666666666666665 0.249999999999986
   0.750000000000000 0.499999999999999 0.749999999999993
   0.916666666666667 0.333333333333334 0.250000000000004
   0.083333333333333 0.166666666666665 0.749999999999988
   0.250000000000000 0.500000000000000 0.249999999999998
   0.416666666666667 0.333333333333335 0.750000000000007
   0.583333333333333 0.166666666666665 0.249999999999986
   0.750000000000000 0.999999999999999 0.749999999999993
   0.916666666666667 0.833333333333334 0.250000000000004
   0.083333333333333 0.666666666666665 0.749999999999989
