Generated by pypolymlp
1.0
   13.106904043574838 -83.411826566158339 -53.508711690633213
   0.000000000000000 9.267980729573148 -53.508711690633213
   0.000000000000000 0.000000000000000 5.350871169063321
 Cu  Au
 36  12
Direct
   0.083333333333333 0.833333333333330 0.416666666666629
   0.250000000000000 0.500000000000000 0.250000000000000
   0.416666666666667 0.166666666666671 0.083333333333371
   0.583333333333333 0.833333333333330 0.916666666666629
   0.750000000000000 0.500000000000000 0.750000000000000
   0.916666666666667 0.166666666666670 0.583333333333371
   0.083333333333333 0.333333333333330 0.916666666666629
   0.250000000000000 0.000000000000000 0.750000000000000
   0.416666666666667 0.666666666666671 0.583333333333371
   0.583333333333333 0.333333333333330 0.416666666666629
   0.750000000000000 0.000000000000000 0.250000000000000
   0.916666666666667 0.666666666666670 0.083333333333371
   0.083333333333333 0.833333333333330 0.916666666666629
   0.250000000000000 0.500000000000000 0.750000000000000
   0.416666666666667 0.166666666666671 0.583333333333371
   0.583333333333333 0.833333333333330 0.416666666666629
   0.750000000000000 0.500000000000000 0.250000000000000
   0.916666666666667 0.166666666666670 0.083333333333371
   0.083333333333333 0.333333333333330 0.416666666666629
   0.250000000000000 0.000000000000000 0.250000000000000
   0.416666666666667 0.666666666666671 0.083333333333371
   0.583333333333333 0.333333333333330 0.916666666666629
   0.750000000000000 0.000000000000000 0.750000000000000
   0.916666666666667 0.666666666666670 0.583333333333371
   0.083333333333333 0.583333333333330 0.666666666666629
   0.250000000000000 0.250000000000000 0.500000000000000
   0.416666666666667 0.916666666666671 0.333333333333371
   0.583333333333333 0.583333333333330 0.166666666666629
   0.750000000000000 0.250000000000000 0.000000000000000
   0.916666666666667 0.916666666666670 0.833333333333371
   0.083333333333333 0.083333333333330 0.166666666666629
   0.250000000000000 0.750000000000000 0.000000000000000
   0.416666666666667 0.416666666666671 0.833333333333371
   0.583333333333333 0.083333333333330 0.666666666666629
   0.750000000000000 0.750000000000000 0.500000000000000
   0.916666666666667 0.416666666666670 0.333333333333371
   0.250000000000000 0.250000000000000 0.000000000000000
   0.416666666666667 0.916666666666671 0.833333333333371
   0.583333333333333 0.583333333333330 0.666666666666629
   0.750000000000000 0.250000000000000 0.500000000000000
   0.916666666666667 0.916666666666670 0.333333333333371
   0.083333333333333 0.583333333333330 0.166666666666629
   0.250000000000000 0.750000000000000 0.500000000000000
   0.416666666666667 0.416666666666671 0.333333333333371
   0.583333333333333 0.083333333333330 0.166666666666629
   0.750000000000000 0.750000000000000 0.000000000000000
   0.916666666666667 0.416666666666670 0.833333333333371
   0.083333333333333 0.083333333333330 0.666666666666629
