Generated by pypolymlp
1.0
   4.142971592252659 0.000000000000000 0.000000000000000
   -20.714857961263295 4.142971592252659 0.000000000000000
   -20.714857961263295 -20.714857961263295 4.142971592252659
 Ag
 4
Direct
   0.000000000000000 0.000000000000000 0.000000000000000
   0.499999999999996 0.000000000000000 0.500000000000000
   0.499999999999998 0.500000000000000 0.500000000000000
   1.000000000000000 0.500000000000000 0.000000000000000
