Generated by mlptools
   1.00000000000000
     4.2454315317732148    0.0000000000000000    0.0000000000000000
     0.0000000000000000    4.2454315317732148    0.0000000000000000
     0.0000000000000000    0.0000000000000000    4.2454315317732148
   Mg   O
     4     4
Direct
  0.0000000000000000  0.0000000000000000  0.0000000000000000
  0.0000000000000000  0.5000000000000000  0.5000000000000000
  0.5000000000000000  0.0000000000000000  0.5000000000000000
  0.5000000000000000  0.5000000000000000  0.0000000000000000
  0.5000000000000000  0.0000000000000000  0.0000000000000000
  0.0000000000000000  0.5000000000000000  0.0000000000000000
  0.0000000000000000  0.0000000000000000  0.5000000000000000
  0.5000000000000000  0.5000000000000000  0.5000000000000000
