Generated by pypolymlp
1.0
   13.106904043574838 -37.071922918292600 0.000000000000000
   0.000000000000000 9.267980729573148 0.000000000000000
   0.000000000000000 0.000000000000000 5.350871169063321
 Cu  Au
 36  12
Direct
   0.083333333333333 0.416666666666665 0.250000000000000
   0.250000000000000 0.250000000000000 0.750000000000000
   0.416666666666667 0.083333333333335 0.250000000000000
   0.583333333333333 0.916666666666665 0.750000000000000
   0.750000000000000 0.750000000000000 0.250000000000000
   0.916666666666667 0.583333333333335 0.750000000000000
   0.083333333333333 0.916666666666665 0.750000000000000
   0.250000000000000 0.750000000000000 0.250000000000000
   0.416666666666667 0.583333333333335 0.750000000000000
   0.583333333333333 0.416666666666665 0.250000000000000
   0.750000000000000 0.250000000000000 0.750000000000000
   0.916666666666667 0.083333333333335 0.250000000000000
   0.083333333333333 0.416666666666665 0.750000000000000
   0.250000000000000 0.250000000000000 0.250000000000000
   0.416666666666667 0.083333333333335 0.750000000000000
   0.583333333333333 0.916666666666665 0.250000000000000
   0.750000000000000 0.750000000000000 0.750000000000000
   0.916666666666667 0.583333333333335 0.250000000000000
   0.083333333333333 0.916666666666665 0.250000000000000
   0.250000000000000 0.750000000000000 0.750000000000000
   0.416666666666667 0.583333333333335 0.250000000000000
   0.583333333333333 0.416666666666665 0.750000000000000
   0.750000000000000 0.250000000000000 0.250000000000000
   0.916666666666667 0.083333333333335 0.750000000000000
   0.083333333333333 0.166666666666665 0.000000000000000
   0.250000000000000 0.000000000000000 0.500000000000000
   0.416666666666667 0.833333333333335 0.000000000000000
   0.583333333333333 0.666666666666665 0.500000000000000
   0.750000000000000 0.500000000000000 0.000000000000000
   0.916666666666667 0.333333333333335 0.500000000000000
   0.083333333333333 0.666666666666665 0.500000000000000
   0.250000000000000 0.500000000000000 0.000000000000000
   0.416666666666667 0.333333333333335 0.500000000000000
   0.583333333333333 0.166666666666665 0.000000000000000
   0.750000000000000 0.000000000000000 0.500000000000000
   0.916666666666667 0.833333333333335 0.000000000000000
   0.250000000000000 0.000000000000000 0.000000000000000
   0.416666666666667 0.833333333333335 0.500000000000000
   0.583333333333333 0.666666666666665 0.000000000000000
   0.750000000000000 0.500000000000000 0.500000000000000
   0.916666666666667 0.333333333333335 0.000000000000000
   0.083333333333333 0.166666666666665 0.500000000000000
   0.250000000000000 0.500000000000000 0.500000000000000
   0.416666666666667 0.333333333333335 0.000000000000000
   0.583333333333333 0.166666666666665 0.500000000000000
   0.750000000000000 0.000000000000000 0.000000000000000
   0.916666666666667 0.833333333333335 0.500000000000000
   0.083333333333333 0.666666666666665 0.000000000000000
