Generated by pypolymlp
1.0
   13.106904043574838 101.947788025304632 53.508711690633213
   0.000000000000000 9.267980729573148 53.508711690633213
   0.000000000000000 0.000000000000000 5.350871169063321
 Cu  Au
 36  12
Direct
   0.083333333333333 0.166666666666670 0.749999999999970
   0.250000000000000 0.500000000000000 0.250000000000000
   0.416666666666667 0.833333333333329 0.750000000000028
   0.583333333333333 0.166666666666670 0.249999999999972
   0.750000000000000 0.500000000000000 0.750000000000000
   0.916666666666667 0.833333333333330 0.250000000000028
   0.083333333333333 0.666666666666670 0.249999999999970
   0.250000000000000 0.000000000000000 0.750000000000000
   0.416666666666667 0.333333333333329 0.250000000000028
   0.583333333333333 0.666666666666670 0.749999999999972
   0.750000000000000 0.000000000000000 0.250000000000000
   0.916666666666667 0.333333333333330 0.750000000000028
   0.083333333333333 0.166666666666670 0.249999999999970
   0.250000000000000 0.500000000000000 0.750000000000000
   0.416666666666667 0.833333333333329 0.250000000000028
   0.583333333333333 0.166666666666670 0.749999999999972
   0.750000000000000 0.500000000000000 0.250000000000000
   0.916666666666667 0.833333333333330 0.750000000000028
   0.083333333333333 0.666666666666670 0.749999999999970
   0.250000000000000 0.000000000000000 0.250000000000000
   0.416666666666667 0.333333333333329 0.750000000000028
   0.583333333333333 0.666666666666670 0.249999999999972
   0.750000000000000 0.000000000000000 0.750000000000000
   0.916666666666667 0.333333333333330 0.250000000000028
   0.083333333333333 0.916666666666670 0.999999999999970
   0.250000000000000 0.250000000000000 0.500000000000000
   0.416666666666667 0.583333333333329 0.000000000000028
   0.583333333333333 0.916666666666670 0.499999999999972
   0.750000000000000 0.250000000000000 0.000000000000000
   0.916666666666667 0.583333333333330 0.500000000000028
   0.083333333333333 0.416666666666670 0.499999999999970
   0.250000000000000 0.750000000000000 0.000000000000000
   0.416666666666667 0.083333333333329 0.500000000000028
   0.583333333333333 0.416666666666670 0.999999999999972
   0.750000000000000 0.750000000000000 0.500000000000000
   0.916666666666667 0.083333333333330 0.000000000000028
   0.250000000000000 0.250000000000000 0.000000000000000
   0.416666666666667 0.583333333333329 0.500000000000028
   0.583333333333333 0.916666666666670 0.999999999999972
   0.750000000000000 0.250000000000000 0.500000000000000
   0.916666666666667 0.583333333333330 0.000000000000028
   0.083333333333333 0.916666666666670 0.499999999999970
   0.250000000000000 0.750000000000000 0.500000000000000
   0.416666666666667 0.083333333333329 0.000000000000028
   0.583333333333333 0.416666666666670 0.499999999999972
   0.750000000000000 0.750000000000000 0.000000000000000
   0.916666666666667 0.083333333333330 0.500000000000028
   0.083333333333333 0.416666666666670 0.999999999999970
