Generated by mlptools
   1.00000000000000
     4.2454315317732148    0.0000000000000000    0.0000000000000000
     0.0000000000000000    4.2454315317732148    0.0000000000000000
     0.0000000000000000    0.0000000000000000    4.2454315317732148
   Ag
     4
Direct
  0.0010000000000000  0.0003000000000000  0.0020000000000000
  0.0000000000000000  0.5000000000000000  0.5000000000000000
  0.5000000000000000  0.0000000000000000  0.5000000000000000
  0.5000000000000000  0.5000000000000000  0.0000000000000000
