Generated by pypolymlp
1.0
   13.106904043574838 9.267980729573148 0.000000000000000
   131.069040435748377 101.947788025304632 0.000000000000000
   131.069040435748377 185.359614591462957 5.350871169063321
 Cu  Au
 36  12
Direct
   0.583333333333332 0.500000000000000 0.250000000000000
   0.750000000000000 0.500000000000000 0.750000000000000
   0.916666666666668 0.500000000000000 0.250000000000000
   0.083333333333329 0.500000000000000 0.750000000000000
   0.250000000000000 0.500000000000000 0.250000000000000
   0.416666666666671 0.500000000000000 0.750000000000000
   0.583333333333336 0.000000000000000 0.750000000000000
   0.750000000000000 0.000000000000000 0.250000000000000
   0.916666666666664 0.000000000000000 0.750000000000000
   0.083333333333332 0.000000000000000 0.250000000000000
   0.250000000000000 0.000000000000000 0.750000000000000
   0.416666666666668 0.000000000000000 0.250000000000000
   0.583333333333329 0.500000000000000 0.750000000000000
   0.750000000000000 0.500000000000000 0.250000000000000
   0.916666666666671 0.500000000000000 0.750000000000000
   0.083333333333332 0.500000000000000 0.250000000000000
   0.250000000000000 0.500000000000000 0.750000000000000
   0.416666666666668 0.500000000000000 0.250000000000000
   0.583333333333332 0.000000000000000 0.250000000000000
   0.750000000000000 0.000000000000000 0.750000000000000
   0.916666666666668 0.000000000000000 0.250000000000000
   0.083333333333329 0.000000000000000 0.750000000000000
   0.250000000000000 0.000000000000000 0.250000000000000
   0.416666666666671 0.000000000000000 0.750000000000000
   0.583333333333334 0.750000000000000 0.000000000000000
   0.750000000000000 0.750000000000000 0.500000000000000
   0.916666666666667 0.750000000000000 0.000000000000000
   0.083333333333336 0.750000000000000 0.500000000000000
   0.250000000000000 0.750000000000000 0.000000000000000
   0.416666666666664 0.750000000000000 0.500000000000000
   0.583333333333336 0.250000000000000 0.500000000000000
   0.750000000000000 0.250000000000000 0.000000000000000
   0.916666666666664 0.250000000000000 0.500000000000000
   0.083333333333333 0.250000000000000 0.000000000000000
   0.250000000000000 0.250000000000000 0.500000000000000
   0.416666666666666 0.250000000000000 0.000000000000000
   0.750000000000000 0.750000000000000 0.000000000000000
   0.916666666666664 0.750000000000000 0.500000000000000
   0.083333333333333 0.750000000000000 0.000000000000000
   0.250000000000000 0.750000000000000 0.500000000000000
   0.416666666666667 0.750000000000000 0.000000000000000
   0.583333333333336 0.750000000000000 0.500000000000000
   0.750000000000000 0.250000000000000 0.500000000000000
   0.916666666666667 0.250000000000000 0.000000000000000
   0.083333333333336 0.250000000000000 0.500000000000000
   0.250000000000000 0.250000000000000 0.000000000000000
   0.416666666666664 0.250000000000000 0.500000000000000
   0.583333333333333 0.250000000000000 0.000000000000000
