primitive_cell-ZnS
 1.0
 3.786186160293827  0.000000000000000   0.000000000000000
-1.893093080146913  3.278933398271515   0.000000000000000
 0.000000000000000  0.000000000000000   6.212678269409001
 Zn  S
 2   2
 Direct
0.333333333333333  0.666666666666667 0.002126465711614
0.666666666666667  0.333333333333333 0.502126465711614
0.333333333333333  0.666666666666667 0.376316514288389
0.666666666666667  0.333333333333333 0.876316514288389
