Sr4 Ti4 O12
1.0
        5.5677280426         0.0000000000         0.0000000000
        0.0000000000         5.5677280426         0.0000000000
        0.0000000000         0.0000000000         7.9071059227
   Sr   Ti    O
    4    4   12
Direct
     0.000000000         0.500000000         0.250000000
     0.500000000         0.000000000         0.250000000
     0.500000000         0.000000000         0.750000000
     0.000000000         0.500000000         0.750000000
     0.000000000         0.000000000         0.000000000
     0.500000000         0.500000000         0.000000000
     0.500000000         0.500000000         0.500000000
     0.000000000         0.000000000         0.500000000
     0.770933509         0.270933509         0.500000000
     0.229066506         0.270933509         0.000000000
     0.770933509         0.729066491         0.000000000
     0.729066491         0.229066506         0.000000000
     0.500000000         0.500000000         0.250000000
     0.000000000         0.000000000         0.250000000
     0.270933509         0.770933509         0.000000000
     0.729066491         0.770933509         0.500000000
     0.270933509         0.229066506         0.500000000
     0.229066506         0.729066491         0.500000000
     0.000000000         0.000000000         0.750000000
     0.500000000         0.500000000         0.750000000
