Generated by mlptools
   1.00000000000000
     4.1429715922526587    0.0000000000000000    0.0000000000000000
     0.0000000000000000    4.1429715922526587    0.0000000000000000
     0.0000000000000000    0.0000000000000000    4.1429715922526587
  Ag
  4
Direct
  0.0000000000000000  0.0000000000000000  0.0000000000000000
  0.0000000000000000  0.5000000000000000  0.5000000000000000
  0.5000000000000000  0.0000000000000000  0.5000000000000000
  0.5000000000000000  0.5000000000000000  0.0000000000000000

  0.00000000E+00  0.00000000E+00  0.00000000E+00
  0.00000000E+00  0.00000000E+00  0.00000000E+00
  0.00000000E+00  0.00000000E+00  0.00000000E+00
  0.00000000E+00  0.00000000E+00  0.00000000E+00
