pypolymlp: random-00018
1.0
   4.036558901619042 0.000000000000000 0.000000000000000
   0.000000000000000 4.036558901619042 0.000000000000000
   0.000000000000000 0.000000000000000 4.036558901619042
 Al
 4
Direct
   0.000000000000000 0.000000000000000 0.000000000000000
   0.000000000000000 0.500000000000000 0.500000000000000
   0.500000000000000 0.000000000000000 0.500000000000000
   0.500000000000000 0.500000000000000 0.000000000000000
