MgO-rocksalt
   1.00000000000000
     5.6542556743096712    0.0000000000000000    0.0000000000000000
     0.0000000000000000    5.6542556743096712    0.0000000000000000
     0.0000000000000000    0.0000000000000000    5.6542556743096712
   Mg  O
     4     4
Direct
  0.0000000000000000  0.0000000000000000  0.0000000000000000
  0.0000000000000000  0.5000000000000000  0.5000000000000000
  0.5000000000000000  0.0000000000000000  0.5000000000000000
  0.5000000000000000  0.5000000000000000  0.0000000000000000
  0.5000000000000000  0.0000000000000000  0.0000000000000000
  0.0000000000000000  0.5000000000000000  0.0000000000000000
  0.0000000000000000  0.0000000000000000  0.5000000000000000
  0.5000000000000000  0.5000000000000000  0.5000000000000000
