Generated by pypolymlp
1.0
   13.106904043574838 37.071922918292593 16.052613507189960
   0.000000000000000 9.267980729573148 16.052613507189960
   0.000000000000000 0.000000000000000 5.350871169063320
 Cu  Au
 36  12
Direct
   0.083333333333333 0.750000000000001 0.749999999999998
   0.250000000000000 0.250000000000000 0.250000000000000
   0.416666666666667 0.749999999999999 0.750000000000002
   0.583333333333333 0.250000000000001 0.249999999999998
   0.750000000000000 0.750000000000000 0.750000000000000
   0.916666666666667 0.249999999999999 0.250000000000002
   0.083333333333333 0.250000000000001 0.749999999999998
   0.250000000000000 0.750000000000000 0.250000000000000
   0.416666666666667 0.249999999999999 0.750000000000002
   0.583333333333333 0.750000000000001 0.249999999999998
   0.750000000000000 0.250000000000000 0.750000000000000
   0.916666666666667 0.749999999999999 0.250000000000002
   0.083333333333333 0.750000000000001 0.249999999999998
   0.250000000000000 0.250000000000000 0.750000000000000
   0.416666666666667 0.749999999999999 0.250000000000002
   0.583333333333333 0.250000000000001 0.749999999999998
   0.750000000000000 0.750000000000000 0.250000000000000
   0.916666666666667 0.249999999999999 0.750000000000002
   0.083333333333333 0.250000000000001 0.249999999999998
   0.250000000000000 0.750000000000000 0.750000000000000
   0.416666666666667 0.249999999999999 0.250000000000002
   0.583333333333333 0.750000000000001 0.749999999999998
   0.750000000000000 0.250000000000000 0.250000000000000
   0.916666666666667 0.749999999999999 0.750000000000002
   0.083333333333333 0.500000000000001 0.249999999999998
   0.250000000000000 0.000000000000000 0.750000000000000
   0.416666666666667 0.499999999999999 0.250000000000002
   0.583333333333333 0.000000000000001 0.749999999999998
   0.750000000000000 0.500000000000000 0.250000000000000
   0.916666666666667 0.999999999999999 0.750000000000002
   0.083333333333333 0.000000000000001 0.249999999999998
   0.250000000000000 0.500000000000000 0.750000000000000
   0.416666666666667 0.999999999999999 0.250000000000002
   0.583333333333333 0.500000000000001 0.749999999999998
   0.750000000000000 0.000000000000000 0.250000000000000
   0.916666666666667 0.499999999999999 0.750000000000002
   0.250000000000000 0.000000000000000 0.250000000000000
   0.416666666666667 0.499999999999999 0.750000000000002
   0.583333333333333 0.000000000000001 0.249999999999998
   0.750000000000000 0.500000000000000 0.750000000000000
   0.916666666666667 0.999999999999999 0.250000000000002
   0.083333333333333 0.500000000000001 0.749999999999998
   0.250000000000000 0.500000000000000 0.250000000000000
   0.416666666666667 0.999999999999999 0.750000000000002
   0.583333333333333 0.500000000000001 0.249999999999998
   0.750000000000000 0.000000000000000 0.750000000000000
   0.916666666666667 0.499999999999999 0.250000000000002
   0.083333333333333 0.000000000000001 0.749999999999998
