Generated by pypolymlp
1.0
   13.106904043574838 9.267980729573148 0.000000000000000
   -65.534520217874189 -37.071922918292593 0.000000000000000
   -65.534520217874189 -92.679807295731479 5.350871169063321
 Cu  Au
 36  12
Direct
   0.583333333333332 0.250000000000000 0.250000000000000
   0.749999999999996 0.750000000000000 0.750000000000000
   0.916666666666666 0.250000000000000 0.250000000000000
   0.083333333333329 0.750000000000000 0.750000000000000
   0.250000000000000 0.250000000000000 0.250000000000000
   0.416666666666664 0.750000000000000 0.750000000000000
   0.083333333333329 0.250000000000000 0.750000000000000
   0.249999999999998 0.750000000000000 0.250000000000000
   0.416666666666664 0.250000000000000 0.750000000000000
   0.583333333333332 0.750000000000000 0.250000000000000
   0.749999999999996 0.250000000000000 0.750000000000000
   0.916666666666666 0.750000000000000 0.250000000000000
   0.583333333333329 0.750000000000000 0.750000000000000
   0.749999999999999 0.250000000000000 0.250000000000000
   0.916666666666664 0.750000000000000 0.750000000000000
   0.083333333333332 0.250000000000000 0.250000000000000
   0.249999999999996 0.750000000000000 0.750000000000000
   0.416666666666666 0.250000000000000 0.250000000000000
   0.083333333333332 0.750000000000000 0.250000000000000
   0.249999999999996 0.250000000000000 0.750000000000000
   0.416666666666666 0.750000000000000 0.250000000000000
   0.583333333333332 0.250000000000000 0.750000000000000
   0.750000000000000 0.750000000000000 0.250000000000000
   0.916666666666664 0.250000000000000 0.750000000000000
   0.833333333333333 0.750000000000000 0.000000000000000
   0.999999999999998 0.250000000000000 0.500000000000000
   0.166666666666667 0.750000000000000 0.000000000000000
   0.333333333333332 0.250000000000000 0.500000000000000
   0.500000000000000 0.750000000000000 0.000000000000000
   0.666666666666666 0.250000000000000 0.500000000000000
   0.333333333333332 0.750000000000000 0.500000000000000
   0.500000000000000 0.250000000000000 0.000000000000000
   0.666666666666664 0.750000000000000 0.500000000000000
   0.833333333333333 0.250000000000000 0.000000000000000
   0.999999999999998 0.750000000000000 0.500000000000000
   0.166666666666667 0.250000000000000 0.000000000000000
   0.000000000000000 0.750000000000000 0.000000000000000
   0.166666666666666 0.250000000000000 0.500000000000000
   0.333333333333333 0.750000000000000 0.000000000000000
   0.499999999999998 0.250000000000000 0.500000000000000
   0.666666666666667 0.750000000000000 0.000000000000000
   0.833333333333332 0.250000000000000 0.500000000000000
   0.499999999999996 0.750000000000000 0.500000000000000
   0.666666666666667 0.250000000000000 0.000000000000000
   0.833333333333332 0.750000000000000 0.500000000000000
   0.000000000000000 0.250000000000000 0.000000000000000
   0.166666666666666 0.750000000000000 0.500000000000000
   0.333333333333333 0.250000000000000 0.000000000000000
