650527-01:CsCl
1.0
   3.278354419893204 0.000000000000000 0.000000000000000
   0.000000000000000 3.278354419893204 0.000000000000000
   0.000000000000000 0.000000000000000 3.278354419893204
 Ti Al
 2  0
Direct
   0.000000000000000 0.000000000000000 0.000000000000000
   0.500000000000000 0.500000000000000 0.500000000000000
