Generated by pypolymlp
1.0
   13.106904043574838 9.267980729573148 0.000000000000000
   0.000000000000000 9.267980729573148 5.350871169063321
   0.000000000000000 0.000000000000000 5.350871169063321
 Cu  Au
 36  12
Direct
   0.083333333333333 0.000000000000000 0.250000000000000
   0.250000000000000 0.000000000000000 0.750000000000000
   0.416666666666667 0.000000000000000 0.250000000000000
   0.583333333333333 0.000000000000000 0.750000000000000
   0.750000000000000 0.000000000000000 0.250000000000000
   0.916666666666667 0.000000000000000 0.750000000000000
   0.083333333333333 0.500000000000000 0.250000000000000
   0.250000000000000 0.500000000000000 0.750000000000000
   0.416666666666667 0.500000000000000 0.250000000000000
   0.583333333333333 0.500000000000000 0.750000000000000
   0.750000000000000 0.500000000000000 0.250000000000000
   0.916666666666667 0.500000000000000 0.750000000000000
   0.083333333333333 0.000000000000000 0.750000000000000
   0.250000000000000 0.000000000000000 0.250000000000000
   0.416666666666667 0.000000000000000 0.750000000000000
   0.583333333333333 0.000000000000000 0.250000000000000
   0.750000000000000 0.000000000000000 0.750000000000000
   0.916666666666667 0.000000000000000 0.250000000000000
   0.083333333333333 0.500000000000000 0.750000000000000
   0.250000000000000 0.500000000000000 0.250000000000000
   0.416666666666667 0.500000000000000 0.750000000000000
   0.583333333333333 0.500000000000000 0.250000000000000
   0.750000000000000 0.500000000000000 0.750000000000000
   0.916666666666667 0.500000000000000 0.250000000000000
   0.083333333333333 0.750000000000000 0.250000000000000
   0.250000000000000 0.750000000000000 0.750000000000000
   0.416666666666667 0.750000000000000 0.250000000000000
   0.583333333333333 0.750000000000000 0.750000000000000
   0.750000000000000 0.750000000000000 0.250000000000000
   0.916666666666667 0.750000000000000 0.750000000000000
   0.083333333333333 0.250000000000000 0.250000000000000
   0.250000000000000 0.250000000000000 0.750000000000000
   0.416666666666667 0.250000000000000 0.250000000000000
   0.583333333333333 0.250000000000000 0.750000000000000
   0.750000000000000 0.250000000000000 0.250000000000000
   0.916666666666667 0.250000000000000 0.750000000000000
   0.250000000000000 0.750000000000000 0.250000000000000
   0.416666666666667 0.750000000000000 0.750000000000000
   0.583333333333333 0.750000000000000 0.250000000000000
   0.750000000000000 0.750000000000000 0.750000000000000
   0.916666666666667 0.750000000000000 0.250000000000000
   0.083333333333333 0.750000000000000 0.750000000000000
   0.250000000000000 0.250000000000000 0.250000000000000
   0.416666666666667 0.250000000000000 0.750000000000000
   0.583333333333333 0.250000000000000 0.250000000000000
   0.750000000000000 0.250000000000000 0.750000000000000
   0.916666666666667 0.250000000000000 0.250000000000000
   0.083333333333333 0.250000000000000 0.750000000000000
