Generated by pypolymlp
1.0
   13.106904043574836 9.267980729573146 0.000000000000000
   39.320712130724509 37.071922918292586 0.000000000000000
   39.320712130724509 55.607884377438886 5.350871169063321
 Cu  Au
 36  12
Direct
   0.583333333333333 0.250000000000000 0.250000000000000
   0.749999999999999 0.750000000000000 0.750000000000000
   0.916666666666667 0.250000000000000 0.250000000000000
   0.083333333333332 0.750000000000000 0.750000000000000
   0.250000000000000 0.250000000000000 0.250000000000000
   0.416666666666666 0.750000000000000 0.750000000000000
   0.083333333333332 0.250000000000000 0.750000000000000
   0.250000000000000 0.750000000000000 0.250000000000000
   0.416666666666666 0.250000000000000 0.750000000000000
   0.583333333333333 0.750000000000000 0.250000000000000
   0.749999999999999 0.250000000000000 0.750000000000000
   0.916666666666667 0.750000000000000 0.250000000000000
   0.583333333333332 0.750000000000000 0.750000000000000
   0.750000000000000 0.250000000000000 0.250000000000000
   0.916666666666666 0.750000000000000 0.750000000000000
   0.083333333333333 0.250000000000000 0.250000000000000
   0.249999999999999 0.750000000000000 0.750000000000000
   0.416666666666667 0.250000000000000 0.250000000000000
   0.083333333333333 0.750000000000000 0.250000000000000
   0.249999999999999 0.250000000000000 0.750000000000000
   0.416666666666667 0.750000000000000 0.250000000000000
   0.583333333333332 0.250000000000000 0.750000000000000
   0.750000000000000 0.750000000000000 0.250000000000000
   0.916666666666666 0.250000000000000 0.750000000000000
   0.833333333333333 0.750000000000000 0.000000000000000
   1.000000000000000 0.250000000000000 0.500000000000000
   0.166666666666667 0.750000000000000 0.000000000000000
   0.333333333333332 0.250000000000000 0.500000000000000
   0.500000000000000 0.750000000000000 0.000000000000000
   0.666666666666666 0.250000000000000 0.500000000000000
   0.333333333333333 0.750000000000000 0.500000000000000
   0.500000000000000 0.250000000000000 0.000000000000000
   0.666666666666667 0.750000000000000 0.500000000000000
   0.833333333333333 0.250000000000000 0.000000000000000
   0.000000000000000 0.750000000000000 0.500000000000000
   0.166666666666667 0.250000000000000 0.000000000000000
   0.000000000000000 0.750000000000000 0.000000000000000
   0.166666666666666 0.250000000000000 0.500000000000000
   0.333333333333333 0.750000000000000 0.000000000000000
   0.500000000000000 0.250000000000000 0.500000000000000
   0.666666666666667 0.750000000000000 0.000000000000000
   0.833333333333333 0.250000000000000 0.500000000000000
   0.500000000000000 0.750000000000000 0.500000000000000
   0.666666666666667 0.250000000000000 0.000000000000000
   0.833333333333333 0.750000000000000 0.500000000000000
   0.000000000000000 0.250000000000000 0.000000000000000
   0.166666666666666 0.750000000000000 0.500000000000000
   0.333333333333333 0.250000000000000 0.000000000000000
