generated by pyclupan
1.0
   4.000000000000000 0.000000000000000 0.000000000000000
   0.000000000000000 4.000000000000000 0.000000000000000
   0.000000000000000 0.000000000000000 4.000000000000000
  Mg   O
  4    4
Direct
   0.000000000000000 0.000000000000000 0.000000000000000
   0.000000000000000 0.500000000000000 0.500000000000000
   0.500000000000000 0.000000000000000 0.500000000000000
   0.500000000000000 0.500000000000000 0.000000000000000
   0.000000000000000 0.000000000000000 0.500000000000000
   0.000000000000000 0.500000000000000 0.000000000000000
   0.500000000000000 0.000000000000000 0.000000000000000
   0.500000000000000 0.500000000000000 0.500000000000000
