Generated by pypolymlp
1.0
   4.142971592252659 -4.142971592252659 -4.142971592252659
   0.000000000000000 4.142971592252659 -4.142971592252659
   0.000000000000000 0.000000000000000 4.142971592252659
 Ag
 4
Direct
   0.000000000000000 0.000000000000000 0.000000000000000
   0.000000000000000 0.500000000000000 0.000000000000000
   0.500000000000000 0.500000000000000 0.500000000000000
   0.500000000000000 0.000000000000000 0.500000000000000
