Generated by pypolymlp
1.0
   13.106904043574838 55.607884377438893 26.754355845316603
   0.000000000000000 9.267980729573148 26.754355845316603
   0.000000000000000 0.000000000000000 5.350871169063321
 Cu  Au
 36  12
Direct
   0.083333333333333 0.583333333333335 0.916666666666660
   0.250000000000000 0.750000000000000 0.749999999999999
   0.416666666666667 0.916666666666665 0.583333333333339
   0.583333333333333 0.083333333333335 0.416666666666659
   0.750000000000000 0.250000000000000 0.249999999999996
   0.916666666666667 0.416666666666665 0.083333333333336
   0.083333333333333 0.083333333333335 0.916666666666660
   0.250000000000000 0.250000000000000 0.750000000000000
   0.416666666666667 0.416666666666665 0.583333333333340
   0.583333333333333 0.583333333333335 0.416666666666659
   0.750000000000000 0.750000000000000 0.249999999999996
   0.916666666666667 0.916666666666665 0.083333333333336
   0.083333333333333 0.583333333333335 0.416666666666659
   0.250000000000000 0.750000000000000 0.249999999999999
   0.416666666666667 0.916666666666665 0.083333333333339
   0.583333333333333 0.083333333333335 0.916666666666659
   0.750000000000000 0.250000000000000 0.749999999999996
   0.916666666666667 0.416666666666665 0.583333333333336
   0.083333333333333 0.083333333333335 0.416666666666660
   0.250000000000000 0.250000000000000 0.250000000000000
   0.416666666666667 0.416666666666665 0.083333333333340
   0.583333333333333 0.583333333333335 0.916666666666659
   0.750000000000000 0.750000000000000 0.749999999999996
   0.916666666666667 0.916666666666665 0.583333333333336
   0.083333333333333 0.333333333333335 0.916666666666661
   0.250000000000000 0.500000000000000 0.749999999999999
   0.416666666666667 0.666666666666665 0.583333333333339
   0.583333333333333 0.833333333333335 0.416666666666659
   0.750000000000000 0.000000000000000 0.249999999999996
   0.916666666666667 0.166666666666665 0.083333333333336
   0.083333333333333 0.833333333333335 0.916666666666660
   0.250000000000000 0.000000000000000 0.750000000000000
   0.416666666666667 0.166666666666665 0.583333333333339
   0.583333333333333 0.333333333333335 0.416666666666659
   0.750000000000000 0.500000000000000 0.249999999999996
   0.916666666666667 0.666666666666665 0.083333333333336
   0.250000000000000 0.500000000000000 0.249999999999999
   0.416666666666667 0.666666666666665 0.083333333333339
   0.583333333333333 0.833333333333335 0.916666666666659
   0.750000000000000 0.000000000000000 0.749999999999996
   0.916666666666667 0.166666666666665 0.583333333333336
   0.083333333333333 0.333333333333335 0.416666666666661
   0.250000000000000 0.000000000000000 0.249999999999999
   0.416666666666667 0.166666666666665 0.083333333333339
   0.583333333333333 0.333333333333335 0.916666666666659
   0.750000000000000 0.500000000000000 0.749999999999996
   0.916666666666667 0.666666666666665 0.583333333333336
   0.083333333333333 0.833333333333335 0.416666666666660
