Generated by pypolymlp
1.0
   4.142971592252659 0.000000000000000 0.000000000000000
   41.429715922526583 4.142971592252659 0.000000000000000
   41.429715922526583 41.429715922526590 4.142971592252659
 Ag
 4
Direct
   0.000000000000000 0.000000000000000 0.000000000000000
   0.000000000000000 0.500000000000000 0.500000000000000
   0.500000000000000 0.000000000000000 0.500000000000000
   0.500000000000000 0.500000000000000 0.000000000000000
