 Al N
   1.0
     3.113781796397618   0.000000000000000   0.000000000000000
    -1.556890898198809   2.696614137521881   0.000000000000000
     0.000000000000000   0.000000000000000   4.982878823190656
  Al  N
   2   2
Direct
   0.333333333333333  0.666666666666667  0.001019587874012
   0.666666666666667  0.333333333333333  0.501019587874012
   0.333333333333333  0.666666666666667  0.618980412125986
   0.666666666666667  0.333333333333333  0.118980412125986
